14 17 197 59 134 146 164 116 122 195 150 113 172 157 88 87 37 168 6 100 44 29 30 74 182 131 75 111 1 35 10 85 51 127 154 192 138 110 55 80 106 38 89 72 153 184 49 64 193 32 40 120 93 191 101 118 105 56 162 149 65 28 139 152 98 102 5 141 142 33 176 170 11 180 112 22 57 70 143 45 83 26 15 178 156 185 21 27 114 175 41 140 2 169 78 158 42 189 77 96 177 71 181 144 171 86 84 108 135 3 199 109 79 115 155 25 148 196 48 128 66 7 99 103 151 136 119 60 95 186 39 12 82 161 166 20 9 97 194 62 4 36 125 130 129 163 117 160 73 174 90 31 121 104 16 63 198 183 19 133 50 126 24 124 8 188 58 13 107 132 81 53 187 179 68 76 137 145 123 23 47 0 18 147 190 91 46 165 94 61 54 34 92 52 173 69 43 67 167 159 

